NAME : a280
COMMENT : Tour length 3602
TYPE : TOUR
DIMENSION : 280
TOUR_SECTION
1
2
242
243
244
245
240
239
238
231
232
233
234
235
236
237
246
247
250
251
230
229
228
227
226
225
224
223
222
219
218
215
214
211
210
207
208
209
252
253
254
255
256
257
258
259
260
261
262
263
264
265
266
138
137
136
135
134
270
269
268
267
140
139
148
141
142
143
144
145
146
147
149
150
178
151
152
156
153
155
154
129
128
21
20
19
18
17
16
271
272
273
274
275
276
277
4
279
278
248
249
206
205
204
203
202
200
199
198
197
194
195
196
201
193
192
191
190
189
188
165
164
163
162
161
175
160
159
158
157
119
120
121
122
123
124
125
30
31
32
28
27
26
22
25
23
24
14
13
12
11
10
8
7
6
5
3
280
241
212
213
216
217
220
221
186
187
185
184
183
182
181
176
177
179
180
174
173
106
105
104
103
102
101
100
168
167
166
171
172
170
169
92
91
90
89
81
80
93
94
95
96
97
98
99
108
110
111
114
113
87
84
83
82
79
77
75
74
73
72
71
70
67
66
65
64
63
62
118
117
115
116
86
85
88
112
109
107
61
60
43
42
41
40
39
38
37
50
49
48
47
46
45
44
57
56
55
54
53
52
51
36
35
34
33
29
126
127
130
131
132
133
15
9
59
58
68
69
76
78
1
-1
EOF